GLKH-1.1/TMP/mEgtspf.pid24792.atsp
NAME : mEgtspf.pid24792.gtsp
TYPE : ATSP
DIMENSION : 45
EDGE_WEIGHT_TYPE : EXPLICIT
EDGE_WEIGHT_FORMAT : FULL_MATRIX
EDGE_WEIGHT_SECTION
999999 5368709 5368709 5368709 5368709 5368753 5368754 5368753 5368752 5368804 5368803 5368804 5368805 5368749 5368748 5368749 5368750 5368778 5368779 5368780 5368779 5368736 5368735 5368736 5368737 5368758 5368759 5368760 5368759 5368781 5368782 5368783 5368782 5368774 5368775 5368774 5368773 5368767 5368768 5368769 5368768 5368783 5368782 5368781 5368782 
5368709 999999 5368709 5368709 5368709 4368718 4368719 4368718 4368717 5368813 5368812 5368813 5368814 5368758 5368757 5368758 5368759 5368787 5368788 5368789 5368788 5368745 5368744 5368745 5368746 5368725 5368726 5368727 5368726 5368790 5368791 5368792 5368791 5368783 5368784 5368783 5368782 5368776 5368777 5368778 5368777 5368792 5368791 5368790 5368791 
5368709 5368709 999999 5368709 5368709 5368808 5368809 5368808 5368807 5368803 5368802 5368803 5368804 5368762 5368763 5368762 5368761 5368731 5368732 5368731 5368730 5368775 5368776 5368775 5368774 5368813 5368814 5368815 5368814 5468708 5468708 5468708 5468708 5368799 5368800 5368799 5368798 5368788 5368789 5368790 5368789 5368782 5368781 5368780 5368781 
5368709 5368709 5368709 999999 5368709 5368827 5368828 5368827 5368826 5368766 5368765 5368766 5368767 5368783 5368782 5368781 5368782 5368802 5368803 5368804 5368803 5368796 5368795 5368794 5368795 5368832 5368833 5368834 5368833 5368801 5368802 5368803 5368802 5368822 5368823 5368822 5368821 5368811 5368812 5368813 5368812 4368755 4368756 4368755 4368756 
5368709 5368709 5368709 5368709 999999 5368739 5368740 5368739 5368738 5368788 5368787 5368788 5368789 5368733 5368732 5368733 5368734 5368762 5368763 5368764 5368763 4368720 4368719 4368720 4368721 5368744 5368745 5368746 5368745 5368765 5368766 5368767 5368766 5368758 5368759 5368758 5368757 5368751 5368752 5368753 5368752 5368767 5368766 5368765 5368766 
5368709 5368709 5368709 5368709 5368709 999999 0 10737418 10737418 5368811 5368810 5368811 5368812 5368756 5368755 5368756 5368757 5368785 5368786 5368787 5368786 5368743 5368742 5368743 5368744 4368719 4368720 4368721 4368720 5368788 5368789 5368790 5368789 5368781 5368782 5368781 5368780 5368774 5368775 5368776 5368775 5368790 5368789 5368788 5368789 
5368709 5368709 5368709 5368709 5368709 10737418 999999 0 10737418 5368812 5368811 5368812 5368813 5368757 5368756 5368757 5368758 5368786 5368787 5368788 5368787 5368744 5368743 5368744 5368745 4368718 4368719 4368720 4368719 5368789 5368790 5368791 5368790 5368782 5368783 5368782 5368781 5368775 5368776 5368777 5368776 5368791 5368790 5368789 5368790 
5368709 5368709 5368709 5368709 5368709 10737418 10737418 999999 0 5368813 5368812 5368813 5368814 5368758 5368757 5368758 5368759 5368787 5368788 5368789 5368788 5368745 5368744 5368745 5368746 4368717 4368718 4368719 4368718 5368790 5368791 5368792 5368791 5368783 5368784 5368783 5368782 5368776 5368777 5368778 5368777 5368792 5368791 5368790 5368791 
5368709 5368709 5368709 5368709 5368709 0 10737418 10737418 999999 5368812 5368811 5368812 5368813 5368757 5368756 5368757 5368758 5368786 5368787 5368788 5368787 5368744 5368743 5368744 5368745 4368718 4368719 4368720 4368719 5368789 5368790 5368791 5368790 5368782 5368783 5368782 5368781 5368775 5368776 5368777 5368776 5368791 5368790 5368789 5368790 
5368709 5368709 5368709 5368709 5368709 5368813 5368814 5368813 5368812 999999 0 10737418 10737418 5368769 5368768 5368767 5368768 5368788 5368789 5368790 5368789 5368782 5368781 5368780 5368781 5368818 5368819 5368820 5368819 5368787 5368788 5368789 5368788 5368808 5368809 5368808 5368807 5368797 5368798 5368799 5368798 5368763 5368762 5368761 5368762 
5368709 5368709 5368709 5368709 5368709 5368812 5368813 5368812 5368811 10737418 999999 0 10737418 5368768 5368767 5368766 5368767 5368787 5368788 5368789 5368788 5368781 5368780 5368779 5368780 5368817 5368818 5368819 5368818 5368786 5368787 5368788 5368787 5368807 5368808 5368807 5368806 5368796 5368797 5368798 5368797 5368762 5368761 5368760 5368761 
5368709 5368709 5368709 5368709 5368709 5368811 5368812 5368811 5368810 10737418 10737418 999999 0 5368767 5368766 5368765 5368766 5368786 5368787 5368788 5368787 5368780 5368779 5368778 5368779 5368816 5368817 5368818 5368817 5368785 5368786 5368787 5368786 5368806 5368807 5368806 5368805 5368795 5368796 5368797 5368796 5368761 5368760 5368759 5368760 
5368709 5368709 5368709 5368709 5368709 5368812 5368813 5368812 5368811 0 10737418 10737418 999999 5368768 5368767 5368766 5368767 5368787 5368788 5368789 5368788 5368781 5368780 5368779 5368780 5368817 5368818 5368819 5368818 5368786 5368787 5368788 5368787 5368807 5368808 5368807 5368806 5368796 5368797 5368798 5368797 5368762 5368761 5368760 5368761 
5368709 5368709 5368709 5368709 5368709 5368758 5368759 5368758 5368757 5368767 5368766 5368767 5368768 999999 0 10737418 10737418 5368739 5368740 5368741 5368740 5368725 5368726 5368725 5368724 5368763 5368764 5368765 5368764 5368742 5368743 5368744 5368743 5368755 5368756 5368755 5368754 4368744 4368745 4368746 4368745 5368746 5368745 5368744 5368745 
5368709 5368709 5368709 5368709 5368709 5368757 5368758 5368757 5368756 5368768 5368767 5368768 5368769 10737418 999999 0 10737418 5368740 5368741 5368742 5368741 5368724 5368725 5368724 5368723 5368762 5368763 5368764 5368763 5368743 5368744 5368745 5368744 5368754 5368755 5368754 5368753 4368743 4368744 4368745 4368744 5368747 5368746 5368745 5368746 
5368709 5368709 5368709 5368709 5368709 5368756 5368757 5368756 5368755 5368767 5368766 5368767 5368768 10737418 10737418 999999 0 5368741 5368742 5368743 5368742 5368725 5368724 5368723 5368724 5368761 5368762 5368763 5368762 5368744 5368745 5368746 5368745 5368753 5368754 5368753 5368752 4368742 4368743 4368744 4368743 5368746 5368745 5368744 5368745 
5368709 5368709 5368709 5368709 5368709 5368757 5368758 5368757 5368756 5368766 5368765 5368766 5368767 0 10737418 10737418 999999 5368740 5368741 5368742 5368741 5368726 5368725 5368724 5368725 5368762 5368763 5368764 5368763 5368743 5368744 5368745 5368744 5368754 5368755 5368754 5368753 4368743 4368744 4368745 4368744 5368745 5368744 5368743 5368744 
5368709 5368709 5368709 5368709 5368709 5368787 5368788 5368787 5368786 5368788 5368787 5368788 5368789 5368741 5368742 5368741 5368740 999999 0 10737418 10737418 5368754 5368755 5368754 5368753 5368792 5368793 5368794 5368793 5368713 5368714 5368715 5368714 5368778 5368779 5368778 5368777 5368767 5368768 5368769 5368768 5368767 5368766 5368765 5368766 
5368709 5368709 5368709 5368709 5368709 5368786 5368787 5368786 5368785 5368787 5368786 5368787 5368788 5368740 5368741 5368740 5368739 10737418 999999 0 10737418 5368753 5368754 5368753 5368752 5368791 5368792 5368793 5368792 5368714 5368715 5368716 5368715 5368777 5368778 5368777 5368776 5368766 5368767 5368768 5368767 5368766 5368765 5368764 5368765 
5368709 5368709 5368709 5368709 5368709 5368787 5368788 5368787 5368786 5368788 5368787 5368788 5368789 5368741 5368742 5368741 5368740 10737418 10737418 999999 0 5368754 5368755 5368754 5368753 5368792 5368793 5368794 5368793 5368715 5368714 5368715 5368716 5368778 5368779 5368778 5368777 5368767 5368768 5368769 5368768 5368767 5368766 5368765 5368766 
5368709 5368709 5368709 5368709 5368709 5368788 5368789 5368788 5368787 5368789 5368788 5368789 5368790 5368742 5368743 5368742 5368741 0 10737418 10737418 999999 5368755 5368756 5368755 5368754 5368793 5368794 5368795 5368794 5368714 5368713 5368714 5368715 5368779 5368780 5368779 5368778 5368768 5368769 5368770 5368769 5368768 5368767 5368766 5368767 
5368709 5368709 5368709 5368709 5368709 5368745 5368746 5368745 5368744 5368780 5368779 5368780 5368781 4368723 4368724 4368725 4368724 5368752 5368753 5368754 5368753 999999 0 10737418 10737418 5368750 5368751 5368752 5368751 5368755 5368756 5368757 5368756 5368748 5368749 5368748 5368747 5368741 5368742 5368743 5368742 5368759 5368758 5368757 5368758 
5368709 5368709 5368709 5368709 5368709 5368744 5368745 5368744 5368743 5368781 5368780 5368781 5368782 4368724 4368725 4368726 4368725 5368753 5368754 5368755 5368754 10737418 999999 0 10737418 5368749 5368750 5368751 5368750 5368756 5368757 5368758 5368757 5368749 5368750 5368749 5368748 5368742 5368743 5368744 5368743 5368760 5368759 5368758 5368759 
5368709 5368709 5368709 5368709 5368709 5368743 5368744 5368743 5368742 5368780 5368779 5368780 5368781 4368725 4368724 4368725 4368726 5368754 5368755 5368756 5368755 10737418 10737418 999999 0 5368748 5368749 5368750 5368749 5368757 5368758 5368759 5368758 5368750 5368751 5368750 5368749 5368743 5368744 5368745 5368744 5368759 5368758 5368757 5368758 
5368709 5368709 5368709 5368709 5368709 5368744 5368745 5368744 5368743 5368779 5368778 5368779 5368780 4368724 4368723 4368724 4368725 5368753 5368754 5368755 5368754 0 10737418 10737418 999999 5368749 5368750 5368751 5368750 5368756 5368757 5368758 5368757 5368749 5368750 5368749 5368748 5368742 5368743 5368744 5368743 5368758 5368757 5368756 5368757 
5368709 5368709 5368709 5368709 5368709 5368719 5368718 5368719 5368720 5368818 5368817 5368818 5368819 5368763 5368762 5368763 5368764 5368792 5368793 5368794 5368793 5368750 5368749 5368750 5368751 999999 0 10737418 10737418 5368795 5368796 5368797 5368796 5368788 5368789 5368788 5368787 5368781 5368782 5368783 5368782 5368797 5368796 5368795 5368796 
5368709 5368709 5368709 5368709 5368709 5368718 5368717 5368718 5368719 5368817 5368816 5368817 5368818 5368762 5368761 5368762 5368763 5368791 5368792 5368793 5368792 5368749 5368748 5368749 5368750 10737418 999999 0 10737418 5368794 5368795 5368796 5368795 5368787 5368788 5368787 5368786 5368780 5368781 5368782 5368781 5368796 5368795 5368794 5368795 
5368709 5368709 5368709 5368709 5368709 5368719 5368718 5368719 5368720 5368818 5368817 5368818 5368819 5368763 5368762 5368763 5368764 5368792 5368793 5368794 5368793 5368750 5368749 5368750 5368751 10737418 10737418 999999 0 5368795 5368796 5368797 5368796 5368788 5368789 5368788 5368787 5368781 5368782 5368783 5368782 5368797 5368796 5368795 5368796 
5368709 5368709 5368709 5368709 5368709 5368720 5368719 5368720 5368721 5368819 5368818 5368819 5368820 5368764 5368763 5368764 5368765 5368793 5368794 5368795 5368794 5368751 5368750 5368751 5368752 0 10737418 10737418 999999 5368796 5368797 5368798 5368797 5368789 5368790 5368789 5368788 5368782 5368783 5368784 5368783 5368798 5368797 5368796 5368797 
5368709 5368709 5368709 5368709 5368709 5368790 5368791 5368790 5368789 5368787 5368786 5368787 5368788 5368744 5368745 5368744 5368743 5368715 5368716 5368715 5368714 5368757 5368758 5368757 5368756 5368795 5368796 5368797 5368796 999999 0 10737418 10737418 5368781 5368782 5368781 5368780 5368770 5368771 5368772 5368771 5368766 5368765 5368764 5368765 
5368709 5368709 5368709 5368709 5368709 5368789 5368790 5368789 5368788 5368786 5368785 5368786 5368787 5368743 5368744 5368743 5368742 5368714 5368715 5368714 5368713 5368756 5368757 5368756 5368755 5368794 5368795 5368796 5368795 10737418 999999 0 10737418 5368780 5368781 5368780 5368779 5368769 5368770 5368771 5368770 5368765 5368764 5368763 5368764 
5368709 5368709 5368709 5368709 5368709 5368790 5368791 5368790 5368789 5368787 5368786 5368787 5368788 5368744 5368745 5368744 5368743 5368715 5368714 5368713 5368714 5368757 5368758 5368757 5368756 5368795 5368796 5368797 5368796 10737418 10737418 999999 0 5368781 5368782 5368781 5368780 5368770 5368771 5368772 5368771 5368766 5368765 5368764 5368765 
5368709 5368709 5368709 5368709 5368709 5368791 5368792 5368791 5368790 5368788 5368787 5368788 5368789 5368745 5368746 5368745 5368744 5368716 5368715 5368714 5368715 5368758 5368759 5368758 5368757 5368796 5368797 5368798 5368797 0 10737418 10737418 999999 5368782 5368783 5368782 5368781 5368771 5368772 5368773 5368772 5368767 5368766 5368765 5368766 
5368709 5368709 5368709 5368709 5368709 5368781 5368782 5368781 5368780 5368806 5368805 5368806 5368807 5368753 5368752 5368753 5368754 5368776 5368777 5368778 5368777 5368748 5368749 5368748 5368747 5368786 5368787 5368788 5368787 5368779 5368780 5368781 5368780 999999 0 10737418 10737418 5368721 5368720 5368719 5368720 5368785 5368784 5368783 5368784 
5368709 5368709 5368709 5368709 5368709 5368782 5368783 5368782 5368781 5368807 5368806 5368807 5368808 5368754 5368753 5368754 5368755 5368777 5368778 5368779 5368778 5368749 5368750 5368749 5368748 5368787 5368788 5368789 5368788 5368780 5368781 5368782 5368781 10737418 999999 0 10737418 5368720 5368719 5368720 5368721 5368786 5368785 5368784 5368785 
5368709 5368709 5368709 5368709 5368709 5368783 5368784 5368783 5368782 5368808 5368807 5368808 5368809 5368755 5368754 5368755 5368756 5368778 5368779 5368780 5368779 5368750 5368751 5368750 5368749 5368788 5368789 5368790 5368789 5368781 5368782 5368783 5368782 10737418 10737418 999999 0 5368721 5368720 5368721 5368722 5368787 5368786 5368785 5368786 
5368709 5368709 5368709 5368709 5368709 5368782 5368783 5368782 5368781 5368807 5368806 5368807 5368808 5368754 5368753 5368754 5368755 5368777 5368778 5368779 5368778 5368749 5368750 5368749 5368748 5368787 5368788 5368789 5368788 5368780 5368781 5368782 5368781 0 10737418 10737418 999999 5368722 5368721 5368720 5368721 5368786 5368785 5368784 5368785 
5368709 5368709 5368709 5368709 5368709 5368776 5368777 5368776 5368775 5368797 5368796 5368797 5368798 5368744 5368743 5368744 5368745 5368767 5368768 5368769 5368768 5368743 5368744 5368743 5368742 5368781 5368782 5368783 5368782 5368770 5368771 5368772 5368771 4368721 4368722 4368721 4368720 999999 0 10737418 10737418 5368776 5368775 5368774 5368775 
5368709 5368709 5368709 5368709 5368709 5368775 5368776 5368775 5368774 5368796 5368795 5368796 5368797 5368743 5368742 5368743 5368744 5368766 5368767 5368768 5368767 5368742 5368743 5368742 5368741 5368780 5368781 5368782 5368781 5368769 5368770 5368771 5368770 4368720 4368721 4368722 4368721 10737418 999999 0 10737418 5368775 5368774 5368773 5368774 
5368709 5368709 5368709 5368709 5368709 5368776 5368777 5368776 5368775 5368797 5368796 5368797 5368798 5368744 5368743 5368744 5368745 5368767 5368768 5368769 5368768 5368743 5368744 5368743 5368742 5368781 5368782 5368783 5368782 5368770 5368771 5368772 5368771 4368719 4368720 4368721 4368720 10737418 10737418 999999 0 5368776 5368775 5368774 5368775 
5368709 5368709 5368709 5368709 5368709 5368777 5368778 5368777 5368776 5368798 5368797 5368798 5368799 5368745 5368744 5368745 5368746 5368768 5368769 5368770 5368769 5368744 5368745 5368744 5368743 5368782 5368783 5368784 5368783 5368771 5368772 5368773 5368772 4368720 4368721 4368720 4368719 0 10737418 10737418 999999 5368777 5368776 5368775 5368776 
5368709 5368709 5368709 5368709 5368709 5368790 5368791 5368790 5368789 4368761 4368760 4368761 4368762 5368746 5368745 5368744 5368745 5368765 5368766 5368767 5368766 5368759 5368758 5368757 5368758 5368795 5368796 5368797 5368796 5368764 5368765 5368766 5368765 5368785 5368786 5368785 5368784 5368774 5368775 5368776 5368775 999999 0 10737418 10737418 
5368709 5368709 5368709 5368709 5368709 5368791 5368792 5368791 5368790 4368762 4368761 4368762 4368763 5368747 5368746 5368745 5368746 5368766 5368767 5368768 5368767 5368760 5368759 5368758 5368759 5368796 5368797 5368798 5368797 5368765 5368766 5368767 5368766 5368786 5368787 5368786 5368785 5368775 5368776 5368777 5368776 10737418 999999 0 10737418 
5368709 5368709 5368709 5368709 5368709 5368790 5368791 5368790 5368789 4368761 4368760 4368761 4368762 5368746 5368745 5368744 5368745 5368765 5368766 5368767 5368766 5368759 5368758 5368757 5368758 5368795 5368796 5368797 5368796 5368764 5368765 5368766 5368765 5368785 5368786 5368785 5368784 5368774 5368775 5368776 5368775 10737418 10737418 999999 0 
5368709 5368709 5368709 5368709 5368709 5368789 5368790 5368789 5368788 4368760 4368759 4368760 4368761 5368745 5368744 5368743 5368744 5368764 5368765 5368766 5368765 5368758 5368757 5368756 5368757 5368794 5368795 5368796 5368795 5368763 5368764 5368765 5368764 5368784 5368785 5368784 5368783 5368773 5368774 5368775 5368774 0 10737418 10737418 999999 
EOF
