RobustCbss/GLKH-1.1/TMP/mEgtspf.pid24792.tour
NAME : mEgtspf.pid24792.gtsp.72530841.tour
COMMENT : Length = 72530841
COMMENT : Found by LKH [Keld Helsgaun] Wed Mar  5 01:02:24 2025
TYPE : TOUR
DIMENSION : 45
TOUR_SECTION
1
3
18
19
20
21
31
32
33
30
4
42
43
44
45
11
12
13
10
5
23
24
25
22
17
14
15
16
38
39
40
41
37
34
35
36
2
9
6
7
8
26
27
28
29
-1
EOF
